n=10;
hearts=27;
clubs=76;
spades=43;
diamonds=90;
blocked=31;
m=array2d(1..n, 1..n,[
	2,_,5,3,_,_,_,_,5,4,
	_,_,_,5,5,_,_,_,5,5,
	3,_,5,_,5,_,_,5,_,_,
	_,_,1,_,_,5,5,_,_,5,
	_,4,_,_,_,_,_,5,3,5,
	_,5,5,5,_,5,5,_,5,5,
	_,4,_,5,_,3,5,_,_,_,
	5,5,1,5,_,_,5,_,_,5,
	5,_,_,2,5,_,1,4,_,_,
	_,_,5,4,_,_,_,_,_,_
]);
